[[89, 90, 99, 98, 97, 96, 87, 86, 95, 94, 93, 92, 91, 82, 83, 73, 84, 85, 76], [75, 77, 68, 67, 66, 74, 64, 65, 56, 57, 58, 59, 49, 55, 46, 47, 38, 48, 39], [40, 50, 41, 32, 31, 30, 29, 37, 28, 19, 20, 21, 22, 13, 12, 11, 10, 2, 3, 4], [14, 5, 6, 7, 8, 9, 18, 17, 16, 15, 23, 24, 25, 26, 27, 35, 36, 44, 34], [33, 43, 42, 51, 52, 45, 54, 53, 60, 61, 62, 63, 72, 81, 80, 71, 70, 69, 78, 79, 88]]